p cnf 935 916
-707 827 0
-827 707 0
-829 -830 0
-709 829 0
-710 830 0
-829 709 0
-830 710 0
-832 -833 0
-712 832 0
-713 833 0
-832 712 0
-833 713 0
-835 -836 0
-835 -837 0
-836 -837 0
-715 835 0
-716 836 0
-717 837 0
-835 715 0
-836 716 0
-837 717 0
-839 -840 0
-719 839 0
-720 840 0
-839 719 0
-840 720 0
-842 -843 0
-842 -844 0
-843 -844 0
-722 842 0
-723 843 0
-724 844 0
-842 722 0
-843 723 0
-844 724 0
-846 -847 0
-726 847 0
-727 846 0
-846 727 0
-847 726 0
-850 859 860 861 862 863 0
-859 -860 0
-859 -861 0
-859 -862 0
-859 -863 0
-860 -861 0
-860 -862 0
-860 -863 0
-861 -862 0
-861 -863 0
-862 -863 0
-850 864 865 866 867 868 869 870 0
-864 -865 0
-864 -866 0
-864 -867 0
-864 -868 0
-864 -869 0
-864 -870 0
-865 -866 0
-865 -867 0
-865 -868 0
-865 -869 0
-865 -870 0
-866 -867 0
-866 -868 0
-866 -869 0
-866 -870 0
-867 -868 0
-867 -869 0
-867 -870 0
-868 -869 0
-868 -870 0
-869 -870 0
-850 871 872 873 874 875 876 877 878 0
-871 -872 0
-871 -873 0
-871 -874 0
-871 -875 0
-871 -876 0
-871 -877 0
-871 -878 0
-872 -873 0
-872 -874 0
-872 -875 0
-872 -876 0
-872 -877 0
-872 -878 0
-873 -874 0
-873 -875 0
-873 -876 0
-873 -877 0
-873 -878 0
-874 -875 0
-874 -876 0
-874 -877 0
-874 -878 0
-875 -876 0
-875 -877 0
-875 -878 0
-876 -877 0
-876 -878 0
-877 -878 0
-850 858 0
-850 854 0
-850 857 0
-852 859 860 861 862 863 0
-859 -860 0
-859 -861 0
-859 -862 0
-859 -863 0
-860 -861 0
-860 -862 0
-860 -863 0
-861 -862 0
-861 -863 0
-862 -863 0
-852 864 865 866 867 868 869 870 0
-864 -865 0
-864 -866 0
-864 -867 0
-864 -868 0
-864 -869 0
-864 -870 0
-865 -866 0
-865 -867 0
-865 -868 0
-865 -869 0
-865 -870 0
-866 -867 0
-866 -868 0
-866 -869 0
-866 -870 0
-867 -868 0
-867 -869 0
-867 -870 0
-868 -869 0
-868 -870 0
-869 -870 0
-852 871 872 873 874 875 876 877 878 0
-871 -872 0
-871 -873 0
-871 -874 0
-871 -875 0
-871 -876 0
-871 -877 0
-871 -878 0
-872 -873 0
-872 -874 0
-872 -875 0
-872 -876 0
-872 -877 0
-872 -878 0
-873 -874 0
-873 -875 0
-873 -876 0
-873 -877 0
-873 -878 0
-874 -875 0
-874 -876 0
-874 -877 0
-874 -878 0
-875 -876 0
-875 -877 0
-875 -878 0
-876 -877 0
-876 -878 0
-877 -878 0
-852 855 0
-852 856 0
-852 857 0
-849 -850 0
-849 -851 0
-849 -852 0
-850 -851 0
-850 -852 0
-851 -852 0
-859 -854 677 0
-862 -854 665 0
-860 -854 662 0
-863 -854 684 0
-861 -854 676 0
-859 -855 782 0
-863 -855 757 0
-860 -855 758 0
-861 -855 774 0
-862 -855 789 0
-871 -856 677 0
-876 -856 662 0
-872 -856 688 0
-877 -856 665 0
-875 -856 669 0
-874 -856 684 0
-873 -856 676 0
-878 -856 658 0
-862 -864 -857 772 0
-862 -869 -857 780 0
-862 -865 -857 759 0
-860 -868 -857 760 0
-862 -870 -857 762 0
-859 -865 -857 763 0
-861 -865 -857 775 0
-863 -868 -857 791 0
-861 -870 -857 765 0
-862 -867 -857 766 0
-861 -868 -857 784 0
-859 -868 -857 776 0
-863 -869 -857 768 0
-863 -865 -857 792 0
-859 -869 -857 793 0
-862 -866 -857 786 0
-860 -865 -857 787 0
-863 -864 -857 770 0
-863 -866 -857 788 0
-860 -870 -857 779 0
-863 -870 -857 771 0
-862 -868 -857 790 0
-859 -870 -857 795 0
-860 -866 -857 796 0
-859 -866 -857 797 0
-875 -858 783 0
-874 -858 757 0
-876 -858 758 0
-872 -858 777 0
-871 -858 782 0
-873 -858 774 0
-877 -858 789 0
-878 -858 764 0
-850 -861 -871 0
-850 -861 -874 0
-850 -861 -876 0
-850 -861 -877 0
-850 -861 -873 0
-850 -862 -877 0
-850 -859 -871 0
-850 -859 -874 0
-850 -859 -877 0
-850 -860 -871 0
-850 -860 -874 0
-850 -860 -876 0
-850 -860 -877 0
-850 -863 -874 0
-850 -863 -877 0
-850 -861 -866 0
-850 -861 -869 0
-850 -861 -867 0
-850 -861 -864 0
-850 -859 -867 0
-850 -859 -864 0
-850 -860 -869 0
-850 -860 -867 0
-850 -860 -864 0
-850 -863 -867 0
-852 -861 -871 0
-852 -861 -874 0
-852 -861 -876 0
-852 -861 -877 0
-852 -861 -873 0
-852 -862 -877 0
-852 -859 -871 0
-852 -859 -874 0
-852 -859 -877 0
-852 -860 -871 0
-852 -860 -874 0
-852 -860 -876 0
-852 -860 -877 0
-852 -863 -874 0
-852 -863 -877 0
-852 -861 -866 0
-852 -861 -869 0
-852 -861 -867 0
-852 -861 -864 0
-852 -859 -867 0
-852 -859 -864 0
-852 -860 -869 0
-852 -860 -867 0
-852 -860 -864 0
-852 -863 -867 0
-753 852 0
-754 851 0
-755 850 0
-752 849 0
-849 752 0
-850 755 0
-851 754 0
-852 753 0
-879 881 0
-880 -881 0
-757 882 -850 874 0
-757 882 -852 863 0
-757 882 850 852 0
757 -882 -850 863 0
757 -882 -852 867 0
757 -882 850 852 0
-758 883 -850 876 0
-758 883 -852 860 0
-758 883 850 852 0
758 -883 -850 860 0
758 -883 -852 869 0
758 -883 850 852 0
-759 884 -850 -862 865 0
-759 884 -850 862 0
-759 884 -852 -862 865 0
-759 884 -852 862 0
-759 884 850 852 0
759 -884 -850 -862 872 0
759 -884 -850 862 0
759 -884 -852 -862 872 0
759 -884 -852 862 0
759 -884 850 852 0
-760 885 -850 -860 868 0
-760 885 -850 860 0
-760 885 -852 -860 868 0
-760 885 -852 860 0
-760 885 850 852 0
760 -885 -850 -860 875 0
760 -885 -850 860 0
760 -885 -852 -860 875 0
760 -885 -852 860 0
760 -885 850 852 0
-762 886 -850 -862 870 0
-762 886 -850 862 0
-762 886 -852 -862 870 0
-762 886 -852 862 0
-762 886 850 852 0
762 -886 -850 -862 878 0
762 -886 -850 862 0
762 -886 -852 -862 878 0
762 -886 -852 862 0
762 -886 850 852 0
-763 887 -850 -859 865 0
-763 887 -850 859 0
-763 887 -852 -859 865 0
-763 887 -852 859 0
-763 887 850 852 0
763 -887 -850 -859 872 0
763 -887 -850 859 0
763 -887 -852 -859 872 0
763 -887 -852 859 0
763 -887 850 852 0
-764 888 -850 878 0
-764 888 850 0
764 -888 -852 870 0
764 -888 852 0
-765 889 -850 -861 870 0
-765 889 -850 861 0
-765 889 -852 -861 870 0
-765 889 -852 861 0
-765 889 850 852 0
765 -889 -850 -861 878 0
765 -889 -850 861 0
765 -889 -852 -861 878 0
765 -889 -852 861 0
765 -889 850 852 0
-658 890 -852 878 0
-658 890 852 0
658 -890 -850 870 0
658 -890 850 0
-766 891 -850 -862 867 0
-766 891 -850 862 0
-766 891 -852 -862 867 0
-766 891 -852 862 0
-766 891 850 852 0
766 -891 -850 -862 874 0
766 -891 -850 862 0
766 -891 -852 -862 874 0
766 -891 -852 862 0
766 -891 850 852 0
-768 892 -850 -863 869 0
-768 892 -850 863 0
-768 892 -852 -863 869 0
-768 892 -852 863 0
-768 892 850 852 0
768 -892 -850 -863 876 0
768 -892 -850 863 0
768 -892 -852 -863 876 0
768 -892 -852 863 0
768 -892 850 852 0
-662 893 -850 860 0
-662 893 -852 876 0
-662 893 850 852 0
662 -893 -850 869 0
662 -893 -852 860 0
662 -893 850 852 0
-770 894 -850 -863 864 0
-770 894 -850 863 0
-770 894 -852 -863 864 0
-770 894 -852 863 0
-770 894 850 852 0
770 -894 -850 -863 871 0
770 -894 -850 863 0
770 -894 -852 -863 871 0
770 -894 -852 863 0
770 -894 850 852 0
-665 895 -850 862 0
-665 895 -852 877 0
-665 895 850 852 0
665 -895 -852 862 0
665 -895 852 0
-771 896 -850 -863 870 0
-771 896 -850 863 0
-771 896 -852 -863 870 0
-771 896 -852 863 0
-771 896 850 852 0
771 -896 -850 -863 878 0
771 -896 -850 863 0
771 -896 -852 -863 878 0
771 -896 -852 863 0
771 -896 850 852 0
-772 897 -850 -862 864 0
-772 897 -850 862 0
-772 897 -852 -862 864 0
-772 897 -852 862 0
-772 897 850 852 0
772 -897 -850 -862 871 0
772 -897 -850 862 0
772 -897 -852 -862 871 0
772 -897 -852 862 0
772 -897 850 852 0
-774 898 -850 873 0
-774 898 -852 861 0
-774 898 850 852 0
774 -898 -850 861 0
774 -898 -852 866 0
774 -898 850 852 0
-669 899 -852 875 0
-669 899 852 0
669 -899 -850 868 0
669 -899 850 0
-775 900 -850 -861 865 0
-775 900 -850 861 0
-775 900 -852 -861 865 0
-775 900 -852 861 0
-775 900 850 852 0
775 -900 -850 -861 872 0
775 -900 -850 861 0
775 -900 -852 -861 872 0
775 -900 -852 861 0
775 -900 850 852 0
-776 901 -850 -859 868 0
-776 901 -850 859 0
-776 901 -852 -859 868 0
-776 901 -852 859 0
-776 901 850 852 0
776 -901 -850 -859 875 0
776 -901 -850 859 0
776 -901 -852 -859 875 0
776 -901 -852 859 0
776 -901 850 852 0
-777 902 -850 872 0
-777 902 850 0
777 -902 -852 865 0
777 -902 852 0
-779 903 -850 -860 870 0
-779 903 -850 860 0
-779 903 -852 -860 870 0
-779 903 -852 860 0
-779 903 850 852 0
779 -903 -850 -860 878 0
779 -903 -850 860 0
779 -903 -852 -860 878 0
779 -903 -852 860 0
779 -903 850 852 0
-780 904 -850 -862 869 0
-780 904 -850 862 0
-780 904 -852 -862 869 0
-780 904 -852 862 0
-780 904 850 852 0
780 -904 -850 -862 876 0
780 -904 -850 862 0
780 -904 -852 -862 876 0
780 -904 -852 862 0
780 -904 850 852 0
-782 905 -850 871 0
-782 905 -852 859 0
-782 905 850 852 0
782 -905 -850 859 0
782 -905 -852 864 0
782 -905 850 852 0
-676 906 -850 861 0
-676 906 -852 873 0
-676 906 850 852 0
676 -906 -850 866 0
676 -906 -852 861 0
676 -906 850 852 0
-783 907 -850 875 0
-783 907 850 0
783 -907 -852 868 0
783 -907 852 0
-677 908 -850 859 0
-677 908 -852 871 0
-677 908 850 852 0
677 -908 -850 864 0
677 -908 -852 859 0
677 -908 850 852 0
-784 909 -850 -861 868 0
-784 909 -850 861 0
-784 909 -852 -861 868 0
-784 909 -852 861 0
-784 909 850 852 0
784 -909 -850 -861 875 0
784 -909 -850 861 0
784 -909 -852 -861 875 0
784 -909 -852 861 0
784 -909 850 852 0
-786 910 -850 -862 866 0
-786 910 -850 862 0
-786 910 -852 -862 866 0
-786 910 -852 862 0
-786 910 850 852 0
786 -910 -850 -862 873 0
786 -910 -850 862 0
786 -910 -852 -862 873 0
786 -910 -852 862 0
786 -910 850 852 0
-787 911 -850 -860 865 0
-787 911 -850 860 0
-787 911 -852 -860 865 0
-787 911 -852 860 0
-787 911 850 852 0
787 -911 -850 -860 872 0
787 -911 -850 860 0
787 -911 -852 -860 872 0
787 -911 -852 860 0
787 -911 850 852 0
-788 912 -850 -863 866 0
-788 912 -850 863 0
-788 912 -852 -863 866 0
-788 912 -852 863 0
-788 912 850 852 0
788 -912 -850 -863 873 0
788 -912 -850 863 0
788 -912 -852 -863 873 0
788 -912 -852 863 0
788 -912 850 852 0
-789 913 -850 877 0
-789 913 -852 862 0
-789 913 850 852 0
789 -913 -850 862 0
789 -913 850 0
-790 914 -850 -862 868 0
-790 914 -850 862 0
-790 914 -852 -862 868 0
-790 914 -852 862 0
-790 914 850 852 0
790 -914 -850 -862 875 0
790 -914 -850 862 0
790 -914 -852 -862 875 0
790 -914 -852 862 0
790 -914 850 852 0
-684 915 -850 863 0
-684 915 -852 874 0
-684 915 850 852 0
684 -915 -850 867 0
684 -915 -852 863 0
684 -915 850 852 0
-791 916 -850 -863 868 0
-791 916 -850 863 0
-791 916 -852 -863 868 0
-791 916 -852 863 0
-791 916 850 852 0
791 -916 -850 -863 875 0
791 -916 -850 863 0
791 -916 -852 -863 875 0
791 -916 -852 863 0
791 -916 850 852 0
-792 917 -850 -863 865 0
-792 917 -850 863 0
-792 917 -852 -863 865 0
-792 917 -852 863 0
-792 917 850 852 0
792 -917 -850 -863 872 0
792 -917 -850 863 0
792 -917 -852 -863 872 0
792 -917 -852 863 0
792 -917 850 852 0
-793 918 -850 -859 869 0
-793 918 -850 859 0
-793 918 -852 -859 869 0
-793 918 -852 859 0
-793 918 850 852 0
793 -918 -850 -859 876 0
793 -918 -850 859 0
793 -918 -852 -859 876 0
793 -918 -852 859 0
793 -918 850 852 0
-688 919 -852 872 0
-688 919 852 0
688 -919 -850 865 0
688 -919 850 0
-795 920 -850 -859 870 0
-795 920 -850 859 0
-795 920 -852 -859 870 0
-795 920 -852 859 0
-795 920 850 852 0
795 -920 -850 -859 878 0
795 -920 -850 859 0
795 -920 -852 -859 878 0
795 -920 -852 859 0
795 -920 850 852 0
-796 921 -850 -860 866 0
-796 921 -850 860 0
-796 921 -852 -860 866 0
-796 921 -852 860 0
-796 921 850 852 0
796 -921 -850 -860 873 0
796 -921 -850 860 0
796 -921 -852 -860 873 0
796 -921 -852 860 0
796 -921 850 852 0
-797 922 -850 -859 866 0
-797 922 -850 859 0
-797 922 -852 -859 866 0
-797 922 -852 859 0
-797 922 850 852 0
797 -922 -850 -859 873 0
797 -922 -850 859 0
797 -922 -852 -859 873 0
797 -922 -852 859 0
797 -922 850 852 0
-879 -880 0
-862 -871 -923 897 0
-862 -876 -923 904 0
-862 -872 -923 884 0
-860 -875 -923 885 0
-862 -878 -923 886 0
-859 -872 -923 887 0
-861 -872 -923 900 0
-863 -875 -923 916 0
-861 -878 -923 889 0
-862 -874 -923 891 0
-861 -875 -923 909 0
-859 -875 -923 901 0
-863 -876 -923 892 0
-863 -872 -923 917 0
-859 -876 -923 918 0
-862 -873 -923 910 0
-860 -872 -923 911 0
-863 -871 -923 894 0
-863 -873 -923 912 0
-860 -878 -923 903 0
-863 -878 -923 896 0
-862 -875 -923 914 0
-859 -878 -923 920 0
-860 -873 -923 921 0
-859 -873 -923 922 0
-875 924 -907 0
-874 924 -882 0
-876 924 -883 0
-872 924 -902 0
-871 924 -905 0
-873 924 -898 0
-877 924 -913 0
-878 924 -888 0
-859 925 -908 0
-862 925 -895 0
-860 925 -893 0
-863 925 -915 0
-861 925 -906 0
-859 -925 908 0
-862 -925 895 0
-860 -925 893 0
-863 -925 915 0
-861 -925 906 0
-864 -926 908 0
-869 -926 893 0
-865 -926 919 0
-868 -926 899 0
-867 -926 915 0
-866 -926 906 0
-870 -926 890 0
-868 -927 907 0
-867 -927 882 0
-869 -927 883 0
-865 -927 902 0
-864 -927 905 0
-866 -927 898 0
-870 -927 888 0
-859 928 -905 0
-863 928 -882 0
-860 928 -883 0
-861 928 -898 0
-862 928 -913 0
-859 -928 905 0
-863 -928 882 0
-860 -928 883 0
-861 -928 898 0
-862 -928 913 0
-871 929 -908 0
-876 929 -893 0
-872 929 -919 0
-877 929 -895 0
-875 929 -899 0
-874 929 -915 0
-873 929 -906 0
-878 929 -890 0
-862 -864 930 -897 0
-862 -869 930 -904 0
-862 -865 930 -884 0
-860 -868 930 -885 0
-862 -870 930 -886 0
-859 -865 930 -887 0
-861 -865 930 -900 0
-863 -868 930 -916 0
-861 -870 930 -889 0
-862 -867 930 -891 0
-861 -868 930 -909 0
-859 -868 930 -901 0
-863 -869 930 -892 0
-863 -865 930 -917 0
-859 -869 930 -918 0
-862 -866 930 -910 0
-860 -865 930 -911 0
-863 -864 930 -894 0
-863 -866 930 -912 0
-860 -870 930 -903 0
-863 -870 930 -896 0
-862 -868 930 -914 0
-859 -870 930 -920 0
-860 -866 930 -921 0
-859 -866 930 -922 0
-850 928 0
-931 859 -864 0
-931 -859 864 0
-931 860 -869 0
-931 -860 869 0
-931 861 -866 0
-931 -861 866 0
-931 863 -867 0
-931 -863 867 0
-859 -864 931 0
-860 -869 931 0
-861 -866 931 0
-863 -867 931 0
-862 -931 0
-868 -931 0
-865 -931 0
-870 -931 0
-850 -925 931 0
-932 871 -859 0
-932 -871 859 0
-932 876 -860 0
-932 -876 860 0
-932 873 -861 0
-932 -873 861 0
-932 877 -862 0
-932 -877 862 0
-932 874 -863 0
-932 -874 863 0
-871 -859 932 0
-876 -860 932 0
-873 -861 932 0
-877 -862 932 0
-874 -863 932 0
-875 -932 0
-872 -932 0
-878 -932 0
-933 871 -864 0
-933 -871 864 0
-933 872 -865 0
-933 -872 865 0
-933 873 -866 0
-933 -873 866 0
-933 874 -867 0
-933 -874 867 0
-933 875 -868 0
-933 -875 868 0
-933 876 -869 0
-933 -876 869 0
-933 878 -870 0
-933 -878 870 0
-871 -864 933 0
-872 -865 933 0
-873 -866 933 0
-874 -867 933 0
-875 -868 933 0
-876 -869 933 0
-878 -870 933 0
-877 -933 0
-850 -924 932 0
-850 923 0
-850 926 0
-934 864 -871 0
-934 -864 871 0
-934 865 -872 0
-934 -865 872 0
-934 866 -873 0
-934 -866 873 0
-934 867 -874 0
-934 -867 874 0
-934 868 -875 0
-934 -868 875 0
-934 869 -876 0
-934 -869 876 0
-934 870 -878 0
-934 -870 878 0
-864 -871 934 0
-865 -872 934 0
-866 -873 934 0
-867 -874 934 0
-868 -875 934 0
-869 -876 934 0
-870 -878 934 0
-877 -934 0
-850 -930 934 0
-852 927 0
-852 925 0
-852 923 0
-852 -928 931 0
-852 -929 932 0
-852 -930 934 0
-753 880 0
-754 879 0
-755 880 0
-752 879 0
-880 753 755 0
-879 754 752 0
-882 151 -881 0
882 -151 -881 0
-883 152 -881 0
883 -152 -881 0
-884 154 -881 0
884 -154 -881 0
-885 155 -881 0
885 -155 -881 0
-761 385 -881 0
761 -385 -881 0
-886 156 -881 0
886 -156 -881 0
-887 158 -881 0
887 -158 -881 0
-888 159 -881 0
888 -159 -881 0
-889 160 -881 0
889 -160 -881 0
-890 602 -881 0
890 -602 -881 0
-891 10 -881 0
891 -10 -881 0
-767 162 -881 0
767 -162 -881 0
-892 163 -881 0
892 -163 -881 0
-893 270 -881 0
893 -270 -881 0
-769 386 -881 0
769 -386 -881 0
-894 11 -881 0
894 -11 -881 0
-895 271 -881 0
895 -271 -881 0
-896 167 -881 0
896 -167 -881 0
-897 170 -881 0
897 -170 -881 0
-773 171 -881 0
773 -171 -881 0
-898 172 -881 0
898 -172 -881 0
-899 273 -881 0
899 -273 -881 0
-900 12 -881 0
900 -12 -881 0
-901 174 -881 0
901 -174 -881 0
-902 274 -881 0
902 -274 -881 0
-778 387 -881 0
778 -387 -881 0
-903 176 -881 0
903 -176 -881 0
-904 153 -881 0
904 -153 -881 0
-781 388 -881 0
781 -388 -881 0
-905 157 -881 0
905 -157 -881 0
-906 267 -881 0
906 -267 -881 0
-907 268 -881 0
907 -268 -881 0
-908 269 -881 0
908 -269 -881 0
-909 161 -881 0
909 -161 -881 0
-785 389 -881 0
785 -389 -881 0
-910 164 -881 0
910 -164 -881 0
-911 165 -881 0
911 -165 -881 0
-912 166 -881 0
912 -166 -881 0
-913 168 -881 0
913 -168 -881 0
-914 169 -881 0
914 -169 -881 0
-915 272 -881 0
915 -272 -881 0
-916 173 -881 0
916 -173 -881 0
-917 175 -881 0
917 -175 -881 0
-918 13 -881 0
918 -13 -881 0
-919 603 -881 0
919 -603 -881 0
-794 390 -881 0
794 -390 -881 0
-920 177 -881 0
920 -177 -881 0
-921 14 -881 0
921 -14 -881 0
-922 178 -881 0
922 -178 -881 0
-825 935 0
-935 825 0
a 881 0
